
List of user-set options:

                                    Name   Value                used
                           compl_inf_tol = 1                     yes
                         constr_viol_tol = 1                     yes
                            dual_inf_tol = 1000                  yes
                           linear_solver = ma97                  yes
                              ma86_small = 1e-30                  no
                                  ma86_u = 0.0001                 no
                              ma97_order = best                  yes
                              ma97_small = 1e-30                 yes
                            ma97_switch1 = at_start              yes
                            ma97_switch2 = od_hd_reuse           yes
                                  ma97_u = 1e-06                 yes
                               ma97_umax = 0.5                   yes
                                max_iter = 1000                  yes
                    max_refinement_steps = 20                    yes
                    min_refinement_steps = 5                     yes
                                 mu_init = 1e-06                 yes
           mu_superlinear_decrease_power = 1.25                  yes
                   nlp_scaling_min_value = 1e-08                 yes
                        option_file_name = Preset_Case_441_pf.opt  yes
                             output_file = ./tmp/Preset_Case_441_pf.output  yes
                      print_user_options = yes                   yes
        required_infeasibility_reduction = 1                      no
                                     tol = 1e-08                 yes
                   warm_start_bound_frac = 1e-20                 yes
                   warm_start_bound_push = 1e-20                 yes
                   warm_start_init_point = yes                   yes
              warm_start_mult_bound_push = 1e-20                 yes
                warm_start_mult_init_max = 1e+40                 yes
             warm_start_slack_bound_frac = 1e-20                 yes
             warm_start_slack_bound_push = 1e-20                 yes

******************************************************************************
This program contains Ipopt, a library for large-scale nonlinear optimization.
 Ipopt is released as open source code under the Eclipse Public License (EPL).
         For more information visit http://projects.coin-or.org/Ipopt
******************************************************************************

This is Ipopt version 3.12.10, running with linear solver ma97.

Number of nonzeros in equality constraint Jacobian...:   123442
Number of nonzeros in inequality constraint Jacobian.:      213
Number of nonzeros in Lagrangian Hessian.............:    49069

Total number of variables............................:    31591
                     variables with only lower bounds:    12912
                variables with lower and upper bounds:    15130
                     variables with only upper bounds:        0
Total number of equality constraints.................:    31483
Total number of inequality constraints...............:       25
        inequality constraints with only lower bounds:        4
   inequality constraints with lower and upper bounds:        0
        inequality constraints with only upper bounds:       21

iter    objective    inf_pr   inf_du lg(mu)  ||d||  lg(rg) alpha_du alpha_pr  ls
   0 -5.2598861e+00 4.06e-03 1.02e+00  -6.0 0.00e+00    -  0.00e+00 0.00e+00   0
   1 -5.2685474e+00 8.78e+00 4.69e+01  -6.0 3.20e+05    -  1.02e-04 1.43e-03h  1
   2 -5.2685111e+00 8.78e+00 4.69e+01  -6.0 3.15e+03    -  1.14e-04 3.16e-05h  1
   3 -5.2605518e+00 8.76e+00 1.99e+02  -6.0 1.86e+04    -  7.65e-05 2.67e-03h  1
   4 -5.2594800e+00 8.75e+00 2.12e+02  -6.0 4.67e+03    -  1.88e-01 9.93e-04h  2
   5 -5.2593108e+00 8.75e+00 2.12e+02  -6.0 2.64e+03    -  1.26e-03 1.35e-04h  9
   6 -5.2592316e+00 8.75e+00 2.12e+02  -6.0 4.64e+03    -  5.34e-03 7.36e-05h 13
   7 -5.2591922e+00 8.75e+00 2.13e+02  -6.0 4.64e+03    -  1.76e-03 3.66e-05h 14
   8 -5.2591718e+00 8.75e+00 2.13e+02  -6.0 4.65e+03    -  8.49e-03 1.89e-05h 15
   9 -4.9736217e+00 6.07e+00 4.78e+05  -6.0 4.64e+03    -  1.74e-03 3.07e-01H  1
iter    objective    inf_pr   inf_du lg(mu)  ||d||  lg(rg) alpha_du alpha_pr  ls
  10 -5.0481735e+00 4.00e+00 1.15e+05  -6.0 4.11e+03    -  1.36e-02 3.41e-01H  1
  11 -5.0549828e+00 3.96e+00 1.14e+05  -6.0 1.21e+04    -  4.84e-02 1.13e-02h  4
  12 -5.0629852e+00 3.91e+00 1.12e+05  -6.0 1.10e+04    -  3.24e-02 1.34e-02h  3
  13 -5.0716524e+00 3.85e+00 1.10e+05  -6.0 9.83e+03    -  3.30e-02 1.46e-02h  4
  14 -5.0746932e+00 3.83e+00 1.10e+05  -6.0 2.68e+04    -  5.85e-02 5.08e-03h  4
  15 -5.0869382e+00 4.13e+01 1.07e+05  -6.0 6.51e+04    -  4.08e-03 2.00e-02h  1
  16 -5.1453615e+00 4.04e+01 8.86e+04  -6.0 9.52e+03    -  2.58e-01 9.94e-02h  1
  17 -5.1454954e+00 4.04e+01 8.86e+04  -6.0 1.58e+02  -2.0 1.39e-03 3.90e-04h  1
  18 -5.1456460e+00 4.04e+01 8.85e+04  -6.0 1.57e+02  -2.5 7.71e-04 4.44e-04h  1
  19 -5.1476797e+00 4.00e+01 8.75e+04  -6.0 1.20e+02  -3.0 1.08e-03 1.01e-02h  1
iter    objective    inf_pr   inf_du lg(mu)  ||d||  lg(rg) alpha_du alpha_pr  ls
  20 -5.1487774e+00 3.97e+01 8.71e+04  -6.0 1.19e+02  -3.4 7.79e-03 5.06e-03f  1
  21 -5.1501608e+00 3.95e+01 8.65e+04  -6.0 1.23e+02  -3.9 4.99e-03 6.04e-03h  1
  22 -5.1834393e+00 3.46e+01 6.99e+04  -6.0 1.33e+02  -4.4 1.64e-02 1.23e-01h  1
  23 -5.1951767e+00 3.37e+01 6.78e+04  -6.0 1.46e+02  -4.9 5.85e-03 2.82e-02h  1
  24 -5.2217577e+00 3.25e+01 6.52e+04  -6.0 2.26e+02  -5.3 4.52e-02 3.53e-02h  1
  25 -5.2229450e+00 3.24e+01 6.50e+04  -6.0 1.09e+02  -2.2 1.06e-06 3.91e-03h  1
  26 -5.2233844e+00 3.23e+01 6.48e+04  -6.0 8.82e+01  -1.8 7.30e-04 2.21e-03h  1
  27 -5.2233840e+00 3.23e+01 6.48e+04  -6.0 8.54e+01   0.5 7.08e-05 4.79e-06h  2
  28 -5.2234130e+00 3.23e+01 6.48e+04  -6.0 7.72e+01   0.9 3.72e-06 3.06e-05h  1
  29 -5.2234697e+00 3.23e+01 6.48e+04  -6.0 7.44e+01   0.4 7.43e-05 6.94e-06h  1
iter    objective    inf_pr   inf_du lg(mu)  ||d||  lg(rg) alpha_du alpha_pr  ls
  30 -5.2231893e+00 3.23e+01 6.48e+04  -6.0 7.57e+01  -0.1 4.21e-05 4.17e-04h  1
  31 -5.2231355e+00 3.23e+01 6.48e+04  -6.0 7.66e+01  -0.6 3.00e-04 7.03e-05h  1
  32 -5.2223759e+00 3.22e+01 6.47e+04  -6.0 7.70e+01  -1.0 3.91e-04 9.31e-04h  1
  33 -5.2215252e+00 3.22e+01 6.47e+04  -6.0 7.75e+01  -1.5 4.78e-04 9.70e-04h  1
  34 -5.2196710e+00 3.22e+01 6.46e+04  -6.0 7.78e+01  -2.0 1.47e-03 1.24e-03h  1
  35 -5.2145831e+00 3.20e+01 6.43e+04  -6.0 7.58e+01  -1.6 2.37e-03 4.64e-03h  1
  36 -5.2069585e+00 3.18e+01 6.39e+04  -6.0 7.78e+01  -2.0 6.68e-03 5.42e-03h  1
  37 -5.1921328e+00 3.16e+01 6.34e+04  -6.0 8.21e+01  -2.5 6.27e-03 8.54e-03h  1
  38 -5.2156947e+00 2.95e+01 5.94e+04  -6.0 8.94e+01  -3.0 1.09e-02 6.58e-02h  1
  39 -5.2147862e+00 2.95e+01 5.94e+04  -6.0 6.80e+01  -1.7 5.18e-03 1.18e-03h  1
iter    objective    inf_pr   inf_du lg(mu)  ||d||  lg(rg) alpha_du alpha_pr  ls
  40 -5.2125937e+00 2.93e+01 5.90e+04  -6.0 6.77e+01  -2.1 2.31e-03 6.56e-03h  1
  41 -5.2120828e+00 2.85e+01 5.74e+04  -6.0 7.31e+01  -2.6 1.05e-02 2.58e-02h  1
  42 -5.2187693e+00 2.84e+01 5.71e+04  -6.0 9.52e+01  -3.1 4.69e-03 5.40e-03h  1
  43 -5.2113183e+00 2.56e+01 5.12e+04  -6.0 6.86e+01  -2.7 4.95e-03 9.87e-02h  1
  44 -5.2254177e+00 2.53e+01 5.07e+04  -6.0 8.32e+01  -3.1 3.75e-02 1.05e-02f  1
  45 -5.2342049e+00 2.32e+01 4.69e+04  -6.0 6.00e+01  -2.7 3.17e-03 8.06e-02h  1
  46 -5.2516867e+00 2.27e+01 4.58e+04  -6.0 6.20e+01  -3.2 3.98e-02 2.22e-02h  1
  47 -5.2697142e+00 2.05e+01 5.50e+04  -6.0 5.04e+01  -2.8 1.02e-02 9.88e-02h  1
  48 -5.2758650e+00 1.93e+01 5.58e+04  -6.0 4.17e+01  -3.2 2.35e-02 5.86e-02f  1
  49 -5.2881140e+00 1.78e+01 5.42e+04  -6.0 3.81e+01  -2.8 6.00e-02 7.75e-02h  1
iter    objective    inf_pr   inf_du lg(mu)  ||d||  lg(rg) alpha_du alpha_pr  ls
  50 -5.3074991e+00 1.60e+01 5.69e+04  -6.0 3.88e+01  -3.3 2.11e-02 9.79e-02h  1
  51 -5.3106549e+00 1.57e+01 5.51e+04  -6.0 7.08e+01  -3.8 2.69e-02 2.16e-02h  1
  52 -5.3675506e+00 1.30e+01 6.17e+04  -6.0 2.64e+01  -3.3 6.60e-04 1.73e-01h  1
  53 -5.3733515e+00 1.22e+01 5.77e+04  -6.0 4.84e+01  -3.8 6.31e-02 5.90e-02h  1
  54 -5.3951279e+00 1.15e+01 5.05e+04  -6.0 1.53e+01  -3.4 1.09e-01 5.88e-02h  1
  55 -5.4101504e+00 1.08e+01 4.92e+04  -6.0 4.10e+01  -3.9 3.60e-02 5.72e-02h  1
  56 -5.4789899e+00 7.10e+00 2.33e+04  -6.0 1.92e+01  -3.4 5.09e-01 3.45e-01h  1
  57 -5.5517911e+00 4.32e+00 1.07e+04  -6.0 3.28e+01  -3.9 7.04e-01 3.92e-01h  1
  58 -5.6145311e+00 2.47e+00 4.85e+03  -6.0 4.72e+01  -4.4 7.00e-01 4.28e-01h  1
  59 -5.6145767e+00 2.47e+00 4.85e+03  -6.0 7.52e+01  -4.9 8.69e-04 1.72e-04h  1
iter    objective    inf_pr   inf_du lg(mu)  ||d||  lg(rg) alpha_du alpha_pr  ls
  60 -5.6618437e+00 2.30e+00 4.43e+03  -6.0 1.69e+02  -5.4 6.16e-02 6.96e-02f  1
  61 -5.6691459e+00 2.29e+00 4.65e+03  -6.0 6.59e+02  -5.8 2.24e-02 2.52e-03h  1
  62 -5.6691643e+00 2.29e+00 4.42e+03  -6.0 8.58e+01  -5.4 8.68e-02 1.05e-04h  1
  63 -5.6819853e+00 2.15e+00 3.97e+03  -6.0 1.26e+02  -5.9 1.89e-01 6.19e-02f  1
  64 -5.7468902e+00 1.54e+00 3.98e+03  -6.0 2.95e+02  -6.4 1.50e-01 3.19e-01h  1
  65 -5.7491215e+00 1.43e+00 3.62e+03  -6.0 7.18e+01  -5.0 5.98e-02 7.35e-02h  1
  66 -5.7508747e+00 1.25e+00 1.45e+04  -6.0 5.92e+01  -4.6 5.10e-01 1.28e-01h  1
  67 -5.7552780e+00 3.32e-01 3.75e+03  -6.0 6.19e+01  -5.1 5.86e-01 7.39e-01h  1
  68 -5.7582000e+00 1.56e-01 1.80e+03  -6.0 6.91e+01  -5.6 1.53e-01 5.41e-01h  1
  69 -5.7579246e+00 1.44e-01 1.20e+05  -6.0 6.09e+01  -4.2 5.78e-01 7.89e-02h  1
iter    objective    inf_pr   inf_du lg(mu)  ||d||  lg(rg) alpha_du alpha_pr  ls
  70 -5.7577060e+00 1.56e-02 2.95e+03  -6.0 1.02e+01  -3.8 9.70e-01 1.00e+00h  1
  71 -5.7577087e+00 1.54e-02 9.51e+04  -6.0 1.72e+00  -4.3 9.96e-01 1.20e-02h  1
  72 -5.7572425e+00 2.42e-05 3.70e+00  -6.0 6.68e-01  -3.9 1.00e+00 1.00e+00h  1
  73 -5.7578363e+00 7.97e-05 1.46e-01  -6.0 1.96e+00  -4.3 1.00e+00 1.00e+00h  1
  74 -5.7594719e+00 8.88e-04 1.24e-01  -6.0 5.68e+00  -4.8 1.00e+00 1.00e+00h  1
  75 -5.7641113e+00 7.31e-03 5.27e-01  -6.0 1.56e+01  -5.3 1.00e+00 1.00e+00h  1
  76 -5.7759429e+00 4.14e-02 3.14e+00  -6.0 3.73e+01  -5.8 1.00e+00 1.00e+00h  1
  77 -5.8008968e+00 1.11e-01 3.12e+01  -6.0 6.48e+01  -6.2 1.00e+00 1.00e+00h  1
  78 -5.8419576e+00 4.24e-01 3.57e+02  -6.0 1.32e+02  -6.7 1.00e+00 1.00e+00h  1
  79 -5.8428576e+00 4.18e-01 3.51e+02  -6.0 3.57e+02  -7.2 7.07e-01 1.55e-02h  1
iter    objective    inf_pr   inf_du lg(mu)  ||d||  lg(rg) alpha_du alpha_pr  ls
  80 -5.9028587e+00 2.96e+01 2.83e+03  -6.0 4.64e+03  -7.7 4.25e-02 2.91e-01h  1
  81 -5.9042162e+00 2.85e+01 1.11e+03  -6.0 3.11e+03  -8.2 1.31e-01 3.63e-02h  1
  82 -5.9252706e+00 2.54e+01 1.31e+03  -6.0 5.76e+03  -8.6 1.99e-01 2.27e-01h  1
  83 -5.9482359e+00 1.57e+01 3.48e+03  -6.0 1.68e+03  -9.1 5.78e-01 3.83e-01h  1
  84 -5.9670171e+00 2.52e+01 1.88e+03  -6.0 2.19e+03  -9.6 4.50e-01 4.50e-01h  1
  85 -5.9738764e+00 6.64e+01 2.13e+02  -6.0 6.53e+03 -10.1 2.24e-01 2.51e-01h  1
  86 -5.9767518e+00 5.69e+01 1.13e+05  -6.0 1.97e+03    -  6.35e-01 1.50e-01h  1
  87 -5.9794122e+00 6.16e+01 8.78e+04  -6.0 5.60e+03    -  1.23e-01 1.49e-01h  1
  88 -5.9796609e+00 6.17e+01 8.21e+04  -6.0 2.94e+04    -  4.12e-02 4.33e-03h  1
  89 -5.9799729e+00 6.14e+01 8.15e+04  -6.0 1.40e+04    -  1.26e-01 1.17e-02h  1
iter    objective    inf_pr   inf_du lg(mu)  ||d||  lg(rg) alpha_du alpha_pr  ls
  90 -5.9803021e+00 6.06e+01 8.01e+04  -6.0 6.28e+03    -  1.32e-02 1.69e-02h  1
  91 -5.9811402e+00 5.89e+01 7.65e+04  -6.0 5.48e+03    -  1.65e-02 4.55e-02h  1
  92 -5.9819236e+00 5.75e+01 7.31e+04  -6.0 5.86e+03    -  1.72e-02 4.45e-02h  1
  93 -5.9826553e+00 5.63e+01 6.99e+04  -6.0 6.30e+03    -  8.27e-03 4.33e-02h  1
  94 -5.9833588e+00 5.53e+01 6.69e+04  -6.0 6.76e+03    -  3.56e-03 4.32e-02h  1
  95 -5.9836990e+00 5.46e+01 6.55e+04  -6.0 7.27e+03    -  1.48e-03 2.16e-02h  1
  96 -5.9942710e+00 1.30e+01 1.04e+05  -6.0 6.27e+02    -  9.86e-03 7.84e-01f  1
  97 -6.0031170e+00 1.88e+01 1.41e+05  -6.0 1.50e+03    -  9.62e-01 6.27e-01h  1
  98 -6.0031174e+00 1.88e+01 1.46e+05  -6.0 2.77e+03    -  3.79e-03 2.49e-05h  1
  99 -6.0074040e+00 1.92e+01 5.63e+04  -6.0 2.18e+03    -  1.12e-01 2.51e-01f  1
iter    objective    inf_pr   inf_du lg(mu)  ||d||  lg(rg) alpha_du alpha_pr  ls
 100r-6.0074040e+00 1.92e+01 1.00e+03   1.2 0.00e+00    -  0.00e+00 1.92e-07R  2
 101r-6.0285571e+00 1.92e+01 1.00e+03   1.2 7.26e+04    -  4.18e-07 1.60e-07f  1
 102 -6.0270374e+00 1.78e+01 6.55e+04  -6.0 4.29e+02    -  1.08e-06 7.08e-02h  1
 103 -6.0234156e+00 1.46e+01 5.36e+04  -6.0 1.60e+01    -  6.24e-02 1.81e-01h  1
 104 -6.0153451e+00 7.37e+00 2.70e+04  -6.0 7.17e+00    -  2.93e-01 4.96e-01h  1
 105 -6.0133360e+00 5.52e+00 2.03e+04  -6.0 3.39e+00    -  8.28e-01 2.50e-01h  1
 106 -6.0075260e+00 2.10e-04 4.90e+02  -6.0 2.69e+00    -  1.86e-01 1.00e+00h  1
 107 -6.0079465e+00 2.40e-04 5.78e+00  -6.0 1.49e+00    -  9.87e-01 1.00e+00h  1
 108 -6.0189704e+00 1.23e-01 4.78e+01  -6.0 7.42e+01    -  8.18e-01 7.45e-01h  1
 109 -6.0186307e+00 8.14e-02 9.23e+01  -6.0 6.70e+01    -  9.40e-01 3.90e-01h  1
iter    objective    inf_pr   inf_du lg(mu)  ||d||  lg(rg) alpha_du alpha_pr  ls
 110 -6.0233246e+00 1.43e+00 2.00e+01  -6.0 3.22e+02    -  4.36e-01 6.71e-01h  1
 111 -6.0260402e+00 5.54e-01 1.82e+02  -6.0 1.76e+02    -  6.64e-01 7.02e-01h  1
 112 -6.0299443e+00 1.35e+00 2.68e+02  -6.0 8.22e+02    -  2.01e-01 2.12e-01h  1
 113 -6.0401529e+00 1.56e+00 3.59e+02  -6.0 2.31e+02    -  9.74e-01 1.00e+00h  1
 114 -6.0441742e+00 1.22e+00 7.05e+03  -6.0 5.30e+02    -  4.47e-01 2.89e-01h  1
 115 -6.0581491e+00 2.50e+00 1.25e+03  -6.0 3.99e+02    -  9.89e-01 1.00e+00h  1
 116 -6.0638473e+00 1.64e+00 2.45e+04  -6.0 2.07e+02    -  4.58e-01 3.43e-01h  1
 117 -6.0797092e+00 1.31e+00 9.03e+04  -6.0 2.16e+02    -  7.30e-01 1.00e+00h  1
 118 -6.0851413e+00 1.15e+00 5.38e+04  -6.0 3.07e+02    -  3.03e-01 2.95e-01h  1
 119 -6.0855136e+00 1.14e+00 1.22e+06  -6.0 4.82e+02    -  5.29e-01 1.26e-02h  1
iter    objective    inf_pr   inf_du lg(mu)  ||d||  lg(rg) alpha_du alpha_pr  ls
 120r-6.0855136e+00 1.14e+00 1.00e+03   0.1 0.00e+00    -  0.00e+00 2.50e-07R  2
 121r-6.1000913e+00 1.14e+00 1.00e+03   0.1 1.01e+04    -  5.07e-06 1.60e-06f  1
 122 -6.0997103e+00 1.11e+00 2.99e+02  -6.0 9.78e+00    -  2.23e-02 2.22e-02h  1
 123 -6.0980159e+00 1.00e+00 1.26e+05  -6.0 9.70e+00    -  2.22e-02 9.95e-02h  1
 124 -6.0960183e+00 8.72e-01 1.10e+05  -6.0 8.96e+00    -  4.37e-01 1.29e-01h  1
 125 -6.0898668e+00 4.84e-01 6.09e+04  -6.0 8.67e+00    -  3.21e-01 4.46e-01h  1
 126 -6.0818263e+00 3.07e-03 2.07e+01  -6.0 5.80e+00    -  8.62e-01 1.00e+00h  1
 127 -6.0824650e+00 2.90e-03 2.79e+01  -6.0 4.79e+00    -  8.97e-01 4.24e-01h  1
 128 -6.0829813e+00 1.69e-04 4.05e-01  -6.0 1.19e+00  -4.2 9.90e-01 1.00e+00f  1
 129 -6.0866555e+00 4.57e-01 1.56e+01  -6.0 2.52e+02    -  7.17e-01 2.81e-01h  1
iter    objective    inf_pr   inf_du lg(mu)  ||d||  lg(rg) alpha_du alpha_pr  ls
 130 -6.0908512e+00 3.02e-01 1.76e+03  -6.0 2.31e+02    -  7.17e-02 4.80e-01H  1
 131 -6.0882508e+00 1.20e-02 4.57e+03  -6.0 1.72e+01    -  8.10e-01 1.00e+00h  1
 132 -6.0900957e+00 2.69e-02 1.26e+02  -6.0 2.55e+01    -  9.98e-01 1.00e+00h  1
 133 -6.0895255e+00 2.18e-03 2.34e+03  -6.0 1.19e+01    -  7.87e-01 1.00e+00h  1
 134 -6.0895520e+00 1.62e-02 2.33e+01  -6.0 3.07e+01    -  5.77e-01 1.00e+00h  1
 135 -6.0895464e+00 1.01e-03 1.33e-03  -6.0 1.18e-01  -4.7 1.00e+00 1.00e+00h  1
 136 -6.0895459e+00 3.80e-03 1.69e-03  -6.0 2.28e-01  -5.2 1.00e+00 1.00e+00h  1
 137 -6.0895446e+00 1.09e-02 4.84e-03  -6.0 3.87e-01  -5.6 1.00e+00 1.00e+00h  1
 138 -6.0895429e+00 9.20e-03 4.08e-03  -6.0 4.85e-01  -6.1 1.00e+00 1.00e+00h  1
 139 -6.0895422e+00 5.72e-03 2.52e-03  -6.0 1.80e+00  -6.6 1.00e+00 1.00e+00h  1
iter    objective    inf_pr   inf_du lg(mu)  ||d||  lg(rg) alpha_du alpha_pr  ls
 140 -6.0895435e+00 3.93e-02 1.73e-02  -6.0 8.01e+00  -7.1 1.00e+00 1.00e+00h  1
 141 -6.0895477e+00 8.83e-02 2.53e+00  -6.0 3.93e+02  -7.6 7.87e-02 2.42e-02h  5
 142 -6.0895731e+00 1.67e-02 1.75e+01  -6.0 1.89e+01  -7.1 1.00e+00 1.00e+00H  1
 143 -6.0895873e+00 1.91e-02 1.73e+01  -6.0 9.34e+02  -7.6 7.19e-02 1.01e-02h  5
 144 -6.0896775e+00 6.94e-02 4.97e+01  -6.0 3.66e+01  -7.2 1.00e+00 1.00e+00H  1
 145 -6.0897334e+00 1.35e-02 4.83e+01  -6.0 6.68e+02  -7.7 2.10e-01 2.83e-02h  4
 146 -6.0899557e+00 7.02e-01 3.18e-01  -6.0 6.42e+01  -7.2 1.00e+00 1.00e+00h  1
 147 -6.0906666e+00 1.93e+00 8.47e-01  -6.0 4.35e+02  -7.7 3.17e-01 3.25e-01h  1
 148 -6.0906666e+00 1.93e+00 8.47e-01  -6.0 1.33e+03  -6.4 7.58e-06 1.93e-05h  1
 149 -6.0909872e+00 7.15e+00 2.04e+02  -6.0 3.83e+02  -6.9 6.44e-03 9.32e-02f  1
iter    objective    inf_pr   inf_du lg(mu)  ||d||  lg(rg) alpha_du alpha_pr  ls
 150 -6.0906842e+00 6.92e+00 1.98e+02  -6.0 2.63e+00  -3.7 7.74e-01 3.12e-02h  6
 151 -6.0906680e+00 6.87e+00 1.96e+02  -6.0 8.66e+00  -4.2 7.34e-01 7.81e-03h  8
 152 -6.0906638e+00 6.86e+00 1.96e+02  -6.0 2.97e+00  -3.8 8.39e-01 4.88e-04h 12
 153 -6.0906684e+00 6.75e+00 1.93e+02  -6.0 1.06e+01  -4.3 4.38e-01 1.71e-02h  2
 154 -6.0906646e+00 6.75e+00 1.92e+02  -6.0 3.34e+00  -3.8 8.87e-01 4.88e-04h 12
 155 -6.0917011e+00 5.62e+00 1.02e+02  -6.0 1.30e+01  -4.3 4.06e-01 4.31e-01h  1
 156 -6.0894529e+00 3.99e-01 2.51e+00  -6.0 3.18e+00  -3.9 1.00e+00 1.00e+00h  1
 157 -6.0912669e+00 4.10e-01 7.58e+00  -6.0 5.10e+00  -4.4 1.00e+00 3.22e-01h  1
 158 -6.0911406e+00 1.92e-01 2.72e+00  -6.0 1.36e+00  -4.8 1.00e+00 5.31e-01h  1
 159 -6.0948460e+00 6.86e+00 2.57e+01  -6.0 1.38e+03    -  1.62e-01 4.59e-01f  1
iter    objective    inf_pr   inf_du lg(mu)  ||d||  lg(rg) alpha_du alpha_pr  ls
 160 -6.0949289e+00 6.69e+00 7.68e+01  -6.0 8.75e+02    -  3.40e-03 2.58e-02h  1
 161 -6.0950464e+00 6.70e+00 7.58e+01  -6.0 1.85e+04    -  2.15e-06 1.60e-03f  1
 162 -6.0950324e+00 6.70e+00 3.77e+02  -6.0 1.27e+05    -  4.06e-09 2.40e-05f  2
 163 -6.0949891e+00 6.03e+00 2.20e+03  -6.0 7.68e-01  -5.3 1.00e+00 9.92e-02h  1
 164 -6.0956299e+00 5.90e+00 2.33e+03  -6.0 1.74e+03    -  1.11e-01 9.25e-02h  1
 165 -6.0957678e+00 5.74e+00 7.48e+03  -6.0 1.16e+03    -  1.21e-01 3.09e-02h  1
 166 -6.0960003e+00 5.52e+00 7.08e+03  -6.0 1.26e+03    -  9.61e-02 4.92e-02h  1
 167 -6.0966032e+00 5.19e+00 1.93e+05  -6.0 1.18e+03    -  7.46e-03 1.39e-01h  1
 168 -6.0974500e+00 5.95e+00 1.77e+05  -6.0 3.43e+03    -  2.30e-02 7.86e-02h  1
 169 -6.0976980e+00 5.88e+00 1.71e+05  -6.0 2.54e+03    -  3.09e-03 3.77e-02h  1
iter    objective    inf_pr   inf_du lg(mu)  ||d||  lg(rg) alpha_du alpha_pr  ls
 170 -6.1000136e+00 1.58e+01 2.79e+04  -6.0 9.99e+02    -  3.60e-02 1.00e+00h  1
 171 -6.0999363e+00 1.35e+01 2.44e+04  -6.0 4.02e+02    -  1.00e+00 1.47e-01h  1
 172 -6.0993951e+00 1.29e+00 2.80e+02  -6.0 3.05e+02    -  1.00e+00 1.00e+00h  1
 173 -6.0993290e+00 1.24e-02 2.88e-01  -6.0 2.74e+01    -  1.00e+00 1.00e+00h  1
 174 -6.0993283e+00 4.88e-07 5.42e-06  -6.0 1.68e-01    -  1.00e+00 1.00e+00h  1
 175 -6.0994268e+00 2.24e+00 3.95e+01  -7.5 5.65e+02    -  8.12e-01 6.75e-01h  1
 176 -6.0994346e+00 8.25e-01 1.48e+01  -7.5 2.05e+02    -  1.00e+00 8.46e-01h  1
 177 -6.0994308e+00 1.41e-02 2.30e-02  -7.5 2.91e+01    -  1.00e+00 1.00e+00h  1
 178 -6.0994307e+00 4.29e-07 3.01e-07  -7.5 1.79e-01    -  1.00e+00 1.00e+00h  1
 179 -6.0994307e+00 2.63e-10 1.73e-11  -7.5 1.69e-04    -  1.00e+00 1.00e+00h  1
iter    objective    inf_pr   inf_du lg(mu)  ||d||  lg(rg) alpha_du alpha_pr  ls
 180 -6.0994322e+00 4.05e-03 9.15e-01  -9.0 1.94e+01    -  9.26e-01 8.26e-01h  1
 181 -6.0994324e+00 1.85e-04 4.33e-01  -9.0 3.42e+00    -  9.06e-01 1.00e+00h  1
 182 -6.0994324e+00 3.11e-10 4.39e-09  -9.0 1.71e-03    -  1.00e+00 1.00e+00h  1

Number of Iterations....: 182

                                   (scaled)                 (unscaled)
Objective...............:  -4.7651815988916306e+00   -6.0994324465812868e+00
Dual infeasibility......:   4.3872649614195021e-09    5.6156991506169631e-09
Constraint violation....:   3.1128875269560013e-10    3.1128875269560013e-10
Complementarity.........:   1.2541638042221024e-09    1.6053296694042911e-09
Overall NLP error.......:   4.3872649614195021e-09    5.6156991506169631e-09


Number of objective function evaluations             = 324
Number of objective gradient evaluations             = 183
Number of equality constraint evaluations            = 324
Number of inequality constraint evaluations          = 324
Number of equality constraint Jacobian evaluations   = 185
Number of inequality constraint Jacobian evaluations = 185
Number of Lagrangian Hessian evaluations             = 182
Total CPU secs in IPOPT (w/o function evaluations)   =    541.063
Total CPU secs in NLP function evaluations           =      7.675

EXIT: Optimal Solution Found.
